NAME: tsp35_12
COMMENT: 35-tsp problem (Padberg/Rinaldi)
TYPE: TSP
DIMENSION: 35
EDGE_WEIGHT_TYPE : EUC_2D
NODE_COORD_SECTION
1 34 9
2 8 28
3 3 5
4 11 32
5 37 14
6 7 39
7 1 28
8 35 3
9 8 2
10 30 40
11 20 4
12 39 29
13 32 0
14 1 19
15 20 29
16 36 8
17 36 17
18 6 4
19 17 6
20 31 5
21 7 9
22 16 40
23 5 5
24 16 24
25 37 1
26 29 1
27 35 11
28 1 26
29 28 14
30 3 23
31 1 32
32 31 39
33 40 19
34 15 2
35 11 31
